peakDumbCharging = 11100; 
Machine = anon_enum(16); 
machineSpeed = [3700,3700,3700,3700,3700,3700,3700,3700,3700,3700,3700,3700,3700,3700,3700,3700]; 
machineLoad = [3700,3700,3700,3700,3700,3700,3700,3700,3700,3700,3700,3700,3700,3700,3700,3700]; 
Car = anon_enum(11); 
demandCar = [7320,4120,11600,10920,5000,23640,28120,14720,23480,5040,3600]; 
arrivalCar = [77,66,66,60,56,55,53,46,45,42,40]; 
departureCar = [80,69,72,64,60,66,63,52,53,45,42]; 
